NAME : mEgtspf.pid7774.gtsp.295279120.tour
COMMENT : Length = 295279120
COMMENT : Found by LKH [Keld Helsgaun] Tue Mar 25 10:38:14 2025
TYPE : TOUR
DIMENSION : 145
TOUR_SECTION
1
128
129
126
127
9
69
66
67
68
4
92
93
90
91
79
80
81
78
75
76
77
74
73
70
71
72
64
65
62
63
6
5
15
36
37
34
35
11
84
85
82
83
39
40
41
38
51
52
53
50
7
2
101
98
99
100
88
89
86
87
61
58
59
60
54
55
56
57
25
17
10
23
20
131
132
133
130
12
24
106
107
108
109
31
32
33
30
44
45
42
43
113
110
111
112
137
134
135
136
48
49
46
47
16
13
21
18
29
26
27
28
125
122
123
124
14
115
116
117
114
118
119
120
121
143
144
145
142
8
96
97
94
95
22
3
102
103
104
105
141
138
139
140
19
-1
EOF
